
Gurobi 9.0.1 (linux64) logging started Thu Apr 30 06:14:15 2020

Gurobi Optimizer version 9.0.1 build v9.0.1rc0 (linux64)
Optimize a model with 1994 rows, 2120 columns and 19632 nonzeros
Model fingerprint: 0x92c456e7
Variable types: 0 continuous, 2120 integer (2106 binary)
Coefficient statistics:
  Matrix range     [1e+00, 7e+00]
  Objective range  [1e+01, 1e+02]
  Bounds range     [1e+00, 1e+00]
  RHS range        [1e+00, 1e+00]

User MIP start produced solution with objective 752 (0.01s)
Loaded user MIP start with objective 752

Presolve removed 848 rows and 688 columns
Presolve time: 0.14s
Presolved: 1146 rows, 1432 columns, 13828 nonzeros
Variable types: 0 continuous, 1432 integer (1432 binary)

Root relaxation: objective 5.205197e+02, 533 iterations, 0.03 seconds

    Nodes    |    Current Node    |     Objective Bounds      |     Work
 Expl Unexpl |  Obj  Depth IntInf | Incumbent    BestBd   Gap | It/Node Time

     0     0  520.51974    0  212  752.00000  520.51974  30.8%     -    0s
     0     0  531.44369    0  242  752.00000  531.44369  29.3%     -    0s
     0     0  532.25702    0  249  752.00000  532.25702  29.2%     -    0s
     0     0  532.25807    0  254  752.00000  532.25807  29.2%     -    0s
     0     0  536.58593    0  243  752.00000  536.58593  28.6%     -    0s
     0     0  536.61428    0  238  752.00000  536.61428  28.6%     -    0s
     0     0  536.64860    0  236  752.00000  536.64860  28.6%     -    0s
     0     0  541.10238    0  251  752.00000  541.10238  28.0%     -    0s
     0     0  542.07635    0  259  752.00000  542.07635  27.9%     -    0s
     0     0  542.21535    0  278  752.00000  542.21535  27.9%     -    0s
     0     0  542.28208    0  281  752.00000  542.28208  27.9%     -    0s
     0     0  542.30089    0  280  752.00000  542.30089  27.9%     -    0s
     0     0  544.90519    0  247  752.00000  544.90519  27.5%     -    1s
     0     0  545.52709    0  256  752.00000  545.52709  27.5%     -    1s
     0     0  545.64573    0  251  752.00000  545.64573  27.4%     -    1s
     0     0  545.67444    0  253  752.00000  545.67444  27.4%     -    1s
     0     0  547.09537    0  283  752.00000  547.09537  27.2%     -    1s
     0     0  547.16069    0  286  752.00000  547.16069  27.2%     -    1s
     0     0  547.16208    0  285  752.00000  547.16208  27.2%     -    1s
     0     0  547.71720    0  280  752.00000  547.71720  27.2%     -    1s
     0     0  547.98305    0  297  752.00000  547.98305  27.1%     -    1s
     0     0  548.10793    0  301  752.00000  548.10793  27.1%     -    1s
     0     0  548.10825    0  300  752.00000  548.10825  27.1%     -    1s
     0     0  548.92845    0  296  752.00000  548.92845  27.0%     -    1s
     0     0  548.94082    0  299  752.00000  548.94082  27.0%     -    1s
     0     0  549.60151    0  295  752.00000  549.60151  26.9%     -    1s
H    0     0                     729.0000000  549.60151  24.6%     -    1s
     0     0  549.62023    0  294  729.00000  549.62023  24.6%     -    1s
     0     0  549.62175    0  303  729.00000  549.62175  24.6%     -    1s
     0     0  550.03325    0  271  729.00000  550.03325  24.5%     -    1s
     0     0  550.04812    0  284  729.00000  550.04812  24.5%     -    1s
     0     0  550.57067    0  283  729.00000  550.57067  24.5%     -    1s
     0     0  550.60289    0  290  729.00000  550.60289  24.5%     -    2s
     0     0  550.64634    0  296  729.00000  550.64634  24.5%     -    2s
     0     0  550.64634    0  297  729.00000  550.64634  24.5%     -    2s
     0     0  551.12973    0  296  729.00000  551.12973  24.4%     -    2s
     0     0  551.19477    0  298  729.00000  551.19477  24.4%     -    2s
     0     0  551.19491    0  298  729.00000  551.19491  24.4%     -    2s
     0     0  551.41838    0  299  729.00000  551.41838  24.4%     -    2s
     0     0  551.41838    0  301  729.00000  551.41838  24.4%     -    2s
     0     0  551.81390    0  291  729.00000  551.81390  24.3%     -    2s
     0     0  551.86932    0  298  729.00000  551.86932  24.3%     -    2s
     0     0  551.86932    0  299  729.00000  551.86932  24.3%     -    2s
     0     0  552.12926    0  304  729.00000  552.12926  24.3%     -    2s
     0     0  552.15016    0  306  729.00000  552.15016  24.3%     -    2s
     0     0  552.15016    0  307  729.00000  552.15016  24.3%     -    2s
     0     0  552.15016    0  308  729.00000  552.15016  24.3%     -    2s
     0     0  552.15016    0  290  729.00000  552.15016  24.3%     -    2s
     0     0  552.36731    0  224  729.00000  552.36731  24.2%     -    2s
     0     0  552.36731    0  269  729.00000  552.36731  24.2%     -    2s
     0     0  552.36731    0  281  729.00000  552.36731  24.2%     -    3s
     0     0  552.36731    0  284  729.00000  552.36731  24.2%     -    3s
     0     0  552.38394    0  290  729.00000  552.38394  24.2%     -    3s
     0     0  552.68681    0  284  729.00000  552.68681  24.2%     -    3s
     0     0  552.69185    0  284  729.00000  552.69185  24.2%     -    3s
     0     0  554.36213    0  289  729.00000  554.36213  24.0%     -    3s
     0     0  554.55090    0  290  729.00000  554.55090  23.9%     -    3s
     0     0  554.58999    0  291  729.00000  554.58999  23.9%     -    3s
     0     0  554.61570    0  292  729.00000  554.61570  23.9%     -    3s
     0     0  555.39562    0  295  729.00000  555.39562  23.8%     -    3s
     0     0  555.52435    0  293  729.00000  555.52435  23.8%     -    3s
     0     0  555.69939    0  290  729.00000  555.69939  23.8%     -    3s
     0     0  555.71755    0  292  729.00000  555.71755  23.8%     -    3s
     0     0  555.94452    0  292  729.00000  555.94452  23.7%     -    3s
     0     0  556.04728    0  289  729.00000  556.04728  23.7%     -    3s
     0     0  556.04728    0  290  729.00000  556.04728  23.7%     -    3s
     0     0  556.06878    0  294  729.00000  556.06878  23.7%     -    3s
     0     0  556.06878    0  279  729.00000  556.06878  23.7%     -    4s
     0     2  556.14960    0  276  729.00000  556.14960  23.7%     -    4s
H   27    27                     681.0000000  556.37473  18.3%   103    4s
    81    67  565.11405    3  245  681.00000  565.11405  17.0%  72.2    5s
*  268   189              33     663.0000000  571.87267  13.7%  59.4    6s
H  298   148                     638.0000000  571.87267  10.4%  60.7    6s
H  326   151                     633.0000000  571.87267  9.66%  57.4    6s
*  381   115              12     619.0000000  575.41840  7.04%  54.8    6s
*  495    92              11     604.0000000  579.87267  3.99%  51.7    7s
   537   110  579.89088    0  314  604.00000  579.89088  3.99%  49.1   10s

Cutting planes:
  Gomory: 1
  MIR: 34
  StrongCG: 1
  Flow cover: 12
  Inf proof: 4
  Zero half: 43

Explored 793 nodes (50417 simplex iterations) in 12.43 seconds
Thread count was 1 (of 40 available processors)

Solution count 8: 604 619 633 ... 752

Optimal solution found (tolerance 1.00e-04)
Best objective 6.040000000000e+02, best bound 6.040000000000e+02, gap 0.0000%

User-callback calls 5037, time in user-callback 0.01 sec
